NAME          
ROWS
 N  OBJ
 L  c1_2
 L  c2_1
 L  c3_1
 L  c4_1
 L  c5_1
 G  c1_1
 G  c2
 G  c3
 G  c4
 G  c5
 E  c1
COLUMNS
    pg[gen-2] c1_2      1
    pg[gen-2] c1_1      1
    pg[gen-2] c1        1
    pg[gen-2] OBJ       15
    pg[gen-1] c2_1      1
    pg[gen-1] c2        1
    pg[gen-1] c1        1
    pg[gen-1] OBJ       14
    pg[gen-3] c3_1      1
    pg[gen-3] c3        1
    pg[gen-3] c1        1
    pg[gen-3] OBJ       30
    pg[gen-5] c4_1      1
    pg[gen-5] c4        1
    pg[gen-5] c1        1
    pg[gen-5] OBJ       10
    pg[gen-4] c5_1      1
    pg[gen-4] c5        1
    pg[gen-4] c1        1
    pg[gen-4] OBJ       40
RHS
    rhs       c1_2      1.7
    rhs       c2_1      0.4
    rhs       c3_1      5.2
    rhs       c4_1      6
    rhs       c5_1      2
    rhs       c1_1      0
    rhs       c2        0
    rhs       c3        0
    rhs       c4        0
    rhs       c5        0
    rhs       c1        10
RANGES
BOUNDS
 LO bounds    pg[gen-2] 0
 PL bounds    pg[gen-2]
 LO bounds    pg[gen-1] 0
 PL bounds    pg[gen-1]
 LO bounds    pg[gen-3] 0
 PL bounds    pg[gen-3]
 LO bounds    pg[gen-5] 0
 PL bounds    pg[gen-5]
 LO bounds    pg[gen-4] 0
 PL bounds    pg[gen-4]
QUADOBJ
ENDATA
